c n orig vars 126
p cnf 561 1806
127 -1 0
127 -2 0
-127 1 2 0
128 -3 0
128 -4 0
-128 3 4 0
129 -5 0
129 -6 0
-129 5 6 0
130 -7 0
130 -8 0
-130 7 8 0
131 -9 0
131 -10 0
-131 9 10 0
132 -11 0
132 -12 0
-132 11 12 0
133 -13 0
133 -14 0
-133 13 14 0
134 -15 0
134 -16 0
-134 15 16 0
135 -17 0
135 -18 0
-135 17 18 0
136 -19 0
136 -20 0
-136 19 20 0
137 -21 0
137 -22 0
-137 21 22 0
138 -23 0
138 -24 0
-138 23 24 0
139 -25 0
139 -26 0
-139 25 26 0
140 -27 0
140 -28 0
-140 27 28 0
141 -29 0
141 -30 0
-141 29 30 0
142 -31 0
142 -32 0
-142 31 32 0
143 -33 0
143 -34 0
-143 33 34 0
144 -35 0
144 -36 0
-144 35 36 0
-145 127 0
-145 128 0
-145 129 0
-145 130 0
-145 131 0
-145 132 0
-145 133 0
-145 134 0
-145 135 0
-145 136 0
-145 137 0
-145 138 0
-145 139 0
-145 140 0
-145 141 0
-145 142 0
-145 143 0
-145 144 0
145 -127 -128 -129 -130 -131 -132 -133 -134 -135 -136 -137 -138 -139 -140 -141 -142 -143 -144 0
-145 0
146 -37 0
146 -47 0
146 -57 0
146 -67 0
146 -77 0
146 -87 0
146 -97 0
146 -107 0
146 -117 0
-146 37 47 57 67 77 87 97 107 117 0
147 -38 0
147 -48 0
147 -58 0
147 -68 0
147 -78 0
147 -88 0
147 -98 0
147 -108 0
147 -118 0
-147 38 48 58 68 78 88 98 108 118 0
148 -39 0
148 -49 0
148 -59 0
148 -69 0
148 -79 0
148 -89 0
148 -99 0
148 -109 0
148 -119 0
-148 39 49 59 69 79 89 99 109 119 0
149 -40 0
149 -50 0
149 -60 0
149 -70 0
149 -80 0
149 -90 0
149 -100 0
149 -110 0
149 -120 0
-149 40 50 60 70 80 90 100 110 120 0
150 -41 0
150 -51 0
150 -61 0
150 -71 0
150 -81 0
150 -91 0
150 -101 0
150 -111 0
150 -121 0
-150 41 51 61 71 81 91 101 111 121 0
151 -42 0
151 -52 0
151 -62 0
151 -72 0
151 -82 0
151 -92 0
151 -102 0
151 -112 0
151 -122 0
-151 42 52 62 72 82 92 102 112 122 0
152 -43 0
152 -53 0
152 -63 0
152 -73 0
152 -83 0
152 -93 0
152 -103 0
152 -113 0
152 -123 0
-152 43 53 63 73 83 93 103 113 123 0
153 -44 0
153 -54 0
153 -64 0
153 -74 0
153 -84 0
153 -94 0
153 -104 0
153 -114 0
153 -124 0
-153 44 54 64 74 84 94 104 114 124 0
154 -45 0
154 -55 0
154 -65 0
154 -75 0
154 -85 0
154 -95 0
154 -105 0
154 -115 0
154 -125 0
-154 45 55 65 75 85 95 105 115 125 0
155 -46 0
155 -56 0
155 -66 0
155 -76 0
155 -86 0
155 -96 0
155 -106 0
155 -116 0
155 -126 0
-155 46 56 66 76 86 96 106 116 126 0
156 37 0
156 38 0
-156 -37 -38 0
157 37 0
157 39 0
-157 -37 -39 0
158 37 0
158 40 0
-158 -37 -40 0
159 37 0
159 41 0
-159 -37 -41 0
160 37 0
160 42 0
-160 -37 -42 0
161 37 0
161 43 0
-161 -37 -43 0
162 37 0
162 44 0
-162 -37 -44 0
163 37 0
163 45 0
-163 -37 -45 0
164 37 0
164 46 0
-164 -37 -46 0
165 38 0
165 39 0
-165 -38 -39 0
166 38 0
166 40 0
-166 -38 -40 0
167 38 0
167 41 0
-167 -38 -41 0
168 38 0
168 42 0
-168 -38 -42 0
169 38 0
169 43 0
-169 -38 -43 0
170 38 0
170 44 0
-170 -38 -44 0
171 38 0
171 45 0
-171 -38 -45 0
172 38 0
172 46 0
-172 -38 -46 0
173 39 0
173 40 0
-173 -39 -40 0
174 39 0
174 41 0
-174 -39 -41 0
175 39 0
175 42 0
-175 -39 -42 0
176 39 0
176 43 0
-176 -39 -43 0
177 39 0
177 44 0
-177 -39 -44 0
178 39 0
178 45 0
-178 -39 -45 0
179 39 0
179 46 0
-179 -39 -46 0
180 40 0
180 41 0
-180 -40 -41 0
181 40 0
181 42 0
-181 -40 -42 0
182 40 0
182 43 0
-182 -40 -43 0
183 40 0
183 44 0
-183 -40 -44 0
184 40 0
184 45 0
-184 -40 -45 0
185 40 0
185 46 0
-185 -40 -46 0
186 41 0
186 42 0
-186 -41 -42 0
187 41 0
187 43 0
-187 -41 -43 0
188 41 0
188 44 0
-188 -41 -44 0
189 41 0
189 45 0
-189 -41 -45 0
190 41 0
190 46 0
-190 -41 -46 0
191 42 0
191 43 0
-191 -42 -43 0
192 42 0
192 44 0
-192 -42 -44 0
193 42 0
193 45 0
-193 -42 -45 0
194 42 0
194 46 0
-194 -42 -46 0
195 43 0
195 44 0
-195 -43 -44 0
196 43 0
196 45 0
-196 -43 -45 0
197 43 0
197 46 0
-197 -43 -46 0
198 44 0
198 45 0
-198 -44 -45 0
199 44 0
199 46 0
-199 -44 -46 0
200 45 0
200 46 0
-200 -45 -46 0
201 47 0
201 48 0
-201 -47 -48 0
202 47 0
202 49 0
-202 -47 -49 0
203 47 0
203 50 0
-203 -47 -50 0
204 47 0
204 51 0
-204 -47 -51 0
205 47 0
205 52 0
-205 -47 -52 0
206 47 0
206 53 0
-206 -47 -53 0
207 47 0
207 54 0
-207 -47 -54 0
208 47 0
208 55 0
-208 -47 -55 0
209 47 0
209 56 0
-209 -47 -56 0
210 48 0
210 49 0
-210 -48 -49 0
211 48 0
211 50 0
-211 -48 -50 0
212 48 0
212 51 0
-212 -48 -51 0
213 48 0
213 52 0
-213 -48 -52 0
214 48 0
214 53 0
-214 -48 -53 0
215 48 0
215 54 0
-215 -48 -54 0
216 48 0
216 55 0
-216 -48 -55 0
217 48 0
217 56 0
-217 -48 -56 0
218 49 0
218 50 0
-218 -49 -50 0
219 49 0
219 51 0
-219 -49 -51 0
220 49 0
220 52 0
-220 -49 -52 0
221 49 0
221 53 0
-221 -49 -53 0
222 49 0
222 54 0
-222 -49 -54 0
223 49 0
223 55 0
-223 -49 -55 0
224 49 0
224 56 0
-224 -49 -56 0
225 50 0
225 51 0
-225 -50 -51 0
226 50 0
226 52 0
-226 -50 -52 0
227 50 0
227 53 0
-227 -50 -53 0
228 50 0
228 54 0
-228 -50 -54 0
229 50 0
229 55 0
-229 -50 -55 0
230 50 0
230 56 0
-230 -50 -56 0
231 51 0
231 52 0
-231 -51 -52 0
232 51 0
232 53 0
-232 -51 -53 0
233 51 0
233 54 0
-233 -51 -54 0
234 51 0
234 55 0
-234 -51 -55 0
235 51 0
235 56 0
-235 -51 -56 0
236 52 0
236 53 0
-236 -52 -53 0
237 52 0
237 54 0
-237 -52 -54 0
238 52 0
238 55 0
-238 -52 -55 0
239 52 0
239 56 0
-239 -52 -56 0
240 53 0
240 54 0
-240 -53 -54 0
241 53 0
241 55 0
-241 -53 -55 0
242 53 0
242 56 0
-242 -53 -56 0
243 54 0
243 55 0
-243 -54 -55 0
244 54 0
244 56 0
-244 -54 -56 0
245 55 0
245 56 0
-245 -55 -56 0
246 57 0
246 58 0
-246 -57 -58 0
247 57 0
247 59 0
-247 -57 -59 0
248 57 0
248 60 0
-248 -57 -60 0
249 57 0
249 61 0
-249 -57 -61 0
250 57 0
250 62 0
-250 -57 -62 0
251 57 0
251 63 0
-251 -57 -63 0
252 57 0
252 64 0
-252 -57 -64 0
253 57 0
253 65 0
-253 -57 -65 0
254 57 0
254 66 0
-254 -57 -66 0
255 58 0
255 59 0
-255 -58 -59 0
256 58 0
256 60 0
-256 -58 -60 0
257 58 0
257 61 0
-257 -58 -61 0
258 58 0
258 62 0
-258 -58 -62 0
259 58 0
259 63 0
-259 -58 -63 0
260 58 0
260 64 0
-260 -58 -64 0
261 58 0
261 65 0
-261 -58 -65 0
262 58 0
262 66 0
-262 -58 -66 0
263 59 0
263 60 0
-263 -59 -60 0
264 59 0
264 61 0
-264 -59 -61 0
265 59 0
265 62 0
-265 -59 -62 0
266 59 0
266 63 0
-266 -59 -63 0
267 59 0
267 64 0
-267 -59 -64 0
268 59 0
268 65 0
-268 -59 -65 0
269 59 0
269 66 0
-269 -59 -66 0
270 60 0
270 61 0
-270 -60 -61 0
271 60 0
271 62 0
-271 -60 -62 0
272 60 0
272 63 0
-272 -60 -63 0
273 60 0
273 64 0
-273 -60 -64 0
274 60 0
274 65 0
-274 -60 -65 0
275 60 0
275 66 0
-275 -60 -66 0
276 61 0
276 62 0
-276 -61 -62 0
277 61 0
277 63 0
-277 -61 -63 0
278 61 0
278 64 0
-278 -61 -64 0
279 61 0
279 65 0
-279 -61 -65 0
280 61 0
280 66 0
-280 -61 -66 0
281 62 0
281 63 0
-281 -62 -63 0
282 62 0
282 64 0
-282 -62 -64 0
283 62 0
283 65 0
-283 -62 -65 0
284 62 0
284 66 0
-284 -62 -66 0
285 63 0
285 64 0
-285 -63 -64 0
286 63 0
286 65 0
-286 -63 -65 0
287 63 0
287 66 0
-287 -63 -66 0
288 64 0
288 65 0
-288 -64 -65 0
289 64 0
289 66 0
-289 -64 -66 0
290 65 0
290 66 0
-290 -65 -66 0
291 67 0
291 68 0
-291 -67 -68 0
292 67 0
292 69 0
-292 -67 -69 0
293 67 0
293 70 0
-293 -67 -70 0
294 67 0
294 71 0
-294 -67 -71 0
295 67 0
295 72 0
-295 -67 -72 0
296 67 0
296 73 0
-296 -67 -73 0
297 67 0
297 74 0
-297 -67 -74 0
298 67 0
298 75 0
-298 -67 -75 0
299 67 0
299 76 0
-299 -67 -76 0
300 68 0
300 69 0
-300 -68 -69 0
301 68 0
301 70 0
-301 -68 -70 0
302 68 0
302 71 0
-302 -68 -71 0
303 68 0
303 72 0
-303 -68 -72 0
304 68 0
304 73 0
-304 -68 -73 0
305 68 0
305 74 0
-305 -68 -74 0
306 68 0
306 75 0
-306 -68 -75 0
307 68 0
307 76 0
-307 -68 -76 0
308 69 0
308 70 0
-308 -69 -70 0
309 69 0
309 71 0
-309 -69 -71 0
310 69 0
310 72 0
-310 -69 -72 0
311 69 0
311 73 0
-311 -69 -73 0
312 69 0
312 74 0
-312 -69 -74 0
313 69 0
313 75 0
-313 -69 -75 0
314 69 0
314 76 0
-314 -69 -76 0
315 70 0
315 71 0
-315 -70 -71 0
316 70 0
316 72 0
-316 -70 -72 0
317 70 0
317 73 0
-317 -70 -73 0
318 70 0
318 74 0
-318 -70 -74 0
319 70 0
319 75 0
-319 -70 -75 0
320 70 0
320 76 0
-320 -70 -76 0
321 71 0
321 72 0
-321 -71 -72 0
322 71 0
322 73 0
-322 -71 -73 0
323 71 0
323 74 0
-323 -71 -74 0
324 71 0
324 75 0
-324 -71 -75 0
325 71 0
325 76 0
-325 -71 -76 0
326 72 0
326 73 0
-326 -72 -73 0
327 72 0
327 74 0
-327 -72 -74 0
328 72 0
328 75 0
-328 -72 -75 0
329 72 0
329 76 0
-329 -72 -76 0
330 73 0
330 74 0
-330 -73 -74 0
331 73 0
331 75 0
-331 -73 -75 0
332 73 0
332 76 0
-332 -73 -76 0
333 74 0
333 75 0
-333 -74 -75 0
334 74 0
334 76 0
-334 -74 -76 0
335 75 0
335 76 0
-335 -75 -76 0
336 77 0
336 78 0
-336 -77 -78 0
337 77 0
337 79 0
-337 -77 -79 0
338 77 0
338 80 0
-338 -77 -80 0
339 77 0
339 81 0
-339 -77 -81 0
340 77 0
340 82 0
-340 -77 -82 0
341 77 0
341 83 0
-341 -77 -83 0
342 77 0
342 84 0
-342 -77 -84 0
343 77 0
343 85 0
-343 -77 -85 0
344 77 0
344 86 0
-344 -77 -86 0
345 78 0
345 79 0
-345 -78 -79 0
346 78 0
346 80 0
-346 -78 -80 0
347 78 0
347 81 0
-347 -78 -81 0
348 78 0
348 82 0
-348 -78 -82 0
349 78 0
349 83 0
-349 -78 -83 0
350 78 0
350 84 0
-350 -78 -84 0
351 78 0
351 85 0
-351 -78 -85 0
352 78 0
352 86 0
-352 -78 -86 0
353 79 0
353 80 0
-353 -79 -80 0
354 79 0
354 81 0
-354 -79 -81 0
355 79 0
355 82 0
-355 -79 -82 0
356 79 0
356 83 0
-356 -79 -83 0
357 79 0
357 84 0
-357 -79 -84 0
358 79 0
358 85 0
-358 -79 -85 0
359 79 0
359 86 0
-359 -79 -86 0
360 80 0
360 81 0
-360 -80 -81 0
361 80 0
361 82 0
-361 -80 -82 0
362 80 0
362 83 0
-362 -80 -83 0
363 80 0
363 84 0
-363 -80 -84 0
364 80 0
364 85 0
-364 -80 -85 0
365 80 0
365 86 0
-365 -80 -86 0
366 81 0
366 82 0
-366 -81 -82 0
367 81 0
367 83 0
-367 -81 -83 0
368 81 0
368 84 0
-368 -81 -84 0
369 81 0
369 85 0
-369 -81 -85 0
370 81 0
370 86 0
-370 -81 -86 0
371 82 0
371 83 0
-371 -82 -83 0
372 82 0
372 84 0
-372 -82 -84 0
373 82 0
373 85 0
-373 -82 -85 0
374 82 0
374 86 0
-374 -82 -86 0
375 83 0
375 84 0
-375 -83 -84 0
376 83 0
376 85 0
-376 -83 -85 0
377 83 0
377 86 0
-377 -83 -86 0
378 84 0
378 85 0
-378 -84 -85 0
379 84 0
379 86 0
-379 -84 -86 0
380 85 0
380 86 0
-380 -85 -86 0
381 87 0
381 88 0
-381 -87 -88 0
382 87 0
382 89 0
-382 -87 -89 0
383 87 0
383 90 0
-383 -87 -90 0
384 87 0
384 91 0
-384 -87 -91 0
385 87 0
385 92 0
-385 -87 -92 0
386 87 0
386 93 0
-386 -87 -93 0
387 87 0
387 94 0
-387 -87 -94 0
388 87 0
388 95 0
-388 -87 -95 0
389 87 0
389 96 0
-389 -87 -96 0
390 88 0
390 89 0
-390 -88 -89 0
391 88 0
391 90 0
-391 -88 -90 0
392 88 0
392 91 0
-392 -88 -91 0
393 88 0
393 92 0
-393 -88 -92 0
394 88 0
394 93 0
-394 -88 -93 0
395 88 0
395 94 0
-395 -88 -94 0
396 88 0
396 95 0
-396 -88 -95 0
397 88 0
397 96 0
-397 -88 -96 0
398 89 0
398 90 0
-398 -89 -90 0
399 89 0
399 91 0
-399 -89 -91 0
400 89 0
400 92 0
-400 -89 -92 0
401 89 0
401 93 0
-401 -89 -93 0
402 89 0
402 94 0
-402 -89 -94 0
403 89 0
403 95 0
-403 -89 -95 0
404 89 0
404 96 0
-404 -89 -96 0
405 90 0
405 91 0
-405 -90 -91 0
406 90 0
406 92 0
-406 -90 -92 0
407 90 0
407 93 0
-407 -90 -93 0
408 90 0
408 94 0
-408 -90 -94 0
409 90 0
409 95 0
-409 -90 -95 0
410 90 0
410 96 0
-410 -90 -96 0
411 91 0
411 92 0
-411 -91 -92 0
412 91 0
412 93 0
-412 -91 -93 0
413 91 0
413 94 0
-413 -91 -94 0
414 91 0
414 95 0
-414 -91 -95 0
415 91 0
415 96 0
-415 -91 -96 0
416 92 0
416 93 0
-416 -92 -93 0
417 92 0
417 94 0
-417 -92 -94 0
418 92 0
418 95 0
-418 -92 -95 0
419 92 0
419 96 0
-419 -92 -96 0
420 93 0
420 94 0
-420 -93 -94 0
421 93 0
421 95 0
-421 -93 -95 0
422 93 0
422 96 0
-422 -93 -96 0
423 94 0
423 95 0
-423 -94 -95 0
424 94 0
424 96 0
-424 -94 -96 0
425 95 0
425 96 0
-425 -95 -96 0
426 97 0
426 98 0
-426 -97 -98 0
427 97 0
427 99 0
-427 -97 -99 0
428 97 0
428 100 0
-428 -97 -100 0
429 97 0
429 101 0
-429 -97 -101 0
430 97 0
430 102 0
-430 -97 -102 0
431 97 0
431 103 0
-431 -97 -103 0
432 97 0
432 104 0
-432 -97 -104 0
433 97 0
433 105 0
-433 -97 -105 0
434 97 0
434 106 0
-434 -97 -106 0
435 98 0
435 99 0
-435 -98 -99 0
436 98 0
436 100 0
-436 -98 -100 0
437 98 0
437 101 0
-437 -98 -101 0
438 98 0
438 102 0
-438 -98 -102 0
439 98 0
439 103 0
-439 -98 -103 0
440 98 0
440 104 0
-440 -98 -104 0
441 98 0
441 105 0
-441 -98 -105 0
442 98 0
442 106 0
-442 -98 -106 0
443 99 0
443 100 0
-443 -99 -100 0
444 99 0
444 101 0
-444 -99 -101 0
445 99 0
445 102 0
-445 -99 -102 0
446 99 0
446 103 0
-446 -99 -103 0
447 99 0
447 104 0
-447 -99 -104 0
448 99 0
448 105 0
-448 -99 -105 0
449 99 0
449 106 0
-449 -99 -106 0
450 100 0
450 101 0
-450 -100 -101 0
451 100 0
451 102 0
-451 -100 -102 0
452 100 0
452 103 0
-452 -100 -103 0
453 100 0
453 104 0
-453 -100 -104 0
454 100 0
454 105 0
-454 -100 -105 0
455 100 0
455 106 0
-455 -100 -106 0
456 101 0
456 102 0
-456 -101 -102 0
457 101 0
457 103 0
-457 -101 -103 0
458 101 0
458 104 0
-458 -101 -104 0
459 101 0
459 105 0
-459 -101 -105 0
460 101 0
460 106 0
-460 -101 -106 0
461 102 0
461 103 0
-461 -102 -103 0
462 102 0
462 104 0
-462 -102 -104 0
463 102 0
463 105 0
-463 -102 -105 0
464 102 0
464 106 0
-464 -102 -106 0
465 103 0
465 104 0
-465 -103 -104 0
466 103 0
466 105 0
-466 -103 -105 0
467 103 0
467 106 0
-467 -103 -106 0
468 104 0
468 105 0
-468 -104 -105 0
469 104 0
469 106 0
-469 -104 -106 0
470 105 0
470 106 0
-470 -105 -106 0
471 107 0
471 108 0
-471 -107 -108 0
472 107 0
472 109 0
-472 -107 -109 0
473 107 0
473 110 0
-473 -107 -110 0
474 107 0
474 111 0
-474 -107 -111 0
475 107 0
475 112 0
-475 -107 -112 0
476 107 0
476 113 0
-476 -107 -113 0
477 107 0
477 114 0
-477 -107 -114 0
478 107 0
478 115 0
-478 -107 -115 0
479 107 0
479 116 0
-479 -107 -116 0
480 108 0
480 109 0
-480 -108 -109 0
481 108 0
481 110 0
-481 -108 -110 0
482 108 0
482 111 0
-482 -108 -111 0
483 108 0
483 112 0
-483 -108 -112 0
484 108 0
484 113 0
-484 -108 -113 0
485 108 0
485 114 0
-485 -108 -114 0
486 108 0
486 115 0
-486 -108 -115 0
487 108 0
487 116 0
-487 -108 -116 0
488 109 0
488 110 0
-488 -109 -110 0
489 109 0
489 111 0
-489 -109 -111 0
490 109 0
490 112 0
-490 -109 -112 0
491 109 0
491 113 0
-491 -109 -113 0
492 109 0
492 114 0
-492 -109 -114 0
493 109 0
493 115 0
-493 -109 -115 0
494 109 0
494 116 0
-494 -109 -116 0
495 110 0
495 111 0
-495 -110 -111 0
496 110 0
496 112 0
-496 -110 -112 0
497 110 0
497 113 0
-497 -110 -113 0
498 110 0
498 114 0
-498 -110 -114 0
499 110 0
499 115 0
-499 -110 -115 0
500 110 0
500 116 0
-500 -110 -116 0
501 111 0
501 112 0
-501 -111 -112 0
502 111 0
502 113 0
-502 -111 -113 0
503 111 0
503 114 0
-503 -111 -114 0
504 111 0
504 115 0
-504 -111 -115 0
505 111 0
505 116 0
-505 -111 -116 0
506 112 0
506 113 0
-506 -112 -113 0
507 112 0
507 114 0
-507 -112 -114 0
508 112 0
508 115 0
-508 -112 -115 0
509 112 0
509 116 0
-509 -112 -116 0
510 113 0
510 114 0
-510 -113 -114 0
511 113 0
511 115 0
-511 -113 -115 0
512 113 0
512 116 0
-512 -113 -116 0
513 114 0
513 115 0
-513 -114 -115 0
514 114 0
514 116 0
-514 -114 -116 0
515 115 0
515 116 0
-515 -115 -116 0
516 117 0
516 118 0
-516 -117 -118 0
517 117 0
517 119 0
-517 -117 -119 0
518 117 0
518 120 0
-518 -117 -120 0
519 117 0
519 121 0
-519 -117 -121 0
520 117 0
520 122 0
-520 -117 -122 0
521 117 0
521 123 0
-521 -117 -123 0
522 117 0
522 124 0
-522 -117 -124 0
523 117 0
523 125 0
-523 -117 -125 0
524 117 0
524 126 0
-524 -117 -126 0
525 118 0
525 119 0
-525 -118 -119 0
526 118 0
526 120 0
-526 -118 -120 0
527 118 0
527 121 0
-527 -118 -121 0
528 118 0
528 122 0
-528 -118 -122 0
529 118 0
529 123 0
-529 -118 -123 0
530 118 0
530 124 0
-530 -118 -124 0
531 118 0
531 125 0
-531 -118 -125 0
532 118 0
532 126 0
-532 -118 -126 0
533 119 0
533 120 0
-533 -119 -120 0
534 119 0
534 121 0
-534 -119 -121 0
535 119 0
535 122 0
-535 -119 -122 0
536 119 0
536 123 0
-536 -119 -123 0
537 119 0
537 124 0
-537 -119 -124 0
538 119 0
538 125 0
-538 -119 -125 0
539 119 0
539 126 0
-539 -119 -126 0
540 120 0
540 121 0
-540 -120 -121 0
541 120 0
541 122 0
-541 -120 -122 0
542 120 0
542 123 0
-542 -120 -123 0
543 120 0
543 124 0
-543 -120 -124 0
544 120 0
544 125 0
-544 -120 -125 0
545 120 0
545 126 0
-545 -120 -126 0
546 121 0
546 122 0
-546 -121 -122 0
547 121 0
547 123 0
-547 -121 -123 0
548 121 0
548 124 0
-548 -121 -124 0
549 121 0
549 125 0
-549 -121 -125 0
550 121 0
550 126 0
-550 -121 -126 0
551 122 0
551 123 0
-551 -122 -123 0
552 122 0
552 124 0
-552 -122 -124 0
553 122 0
553 125 0
-553 -122 -125 0
554 122 0
554 126 0
-554 -122 -126 0
555 123 0
555 124 0
-555 -123 -124 0
556 123 0
556 125 0
-556 -123 -125 0
557 123 0
557 126 0
-557 -123 -126 0
558 124 0
558 125 0
-558 -124 -125 0
559 124 0
559 126 0
-559 -124 -126 0
560 125 0
560 126 0
-560 -125 -126 0
-561 146 0
-561 147 0
-561 148 0
-561 149 0
-561 150 0
-561 151 0
-561 152 0
-561 153 0
-561 154 0
-561 155 0
-561 156 0
-561 157 0
-561 158 0
-561 159 0
-561 160 0
-561 161 0
-561 162 0
-561 163 0
-561 164 0
-561 165 0
-561 166 0
-561 167 0
-561 168 0
-561 169 0
-561 170 0
-561 171 0
-561 172 0
-561 173 0
-561 174 0
-561 175 0
-561 176 0
-561 177 0
-561 178 0
-561 179 0
-561 180 0
-561 181 0
-561 182 0
-561 183 0
-561 184 0
-561 185 0
-561 186 0
-561 187 0
-561 188 0
-561 189 0
-561 190 0
-561 191 0
-561 192 0
-561 193 0
-561 194 0
-561 195 0
-561 196 0
-561 197 0
-561 198 0
-561 199 0
-561 200 0
-561 201 0
-561 202 0
-561 203 0
-561 204 0
-561 205 0
-561 206 0
-561 207 0
-561 208 0
-561 209 0
-561 210 0
-561 211 0
-561 212 0
-561 213 0
-561 214 0
-561 215 0
-561 216 0
-561 217 0
-561 218 0
-561 219 0
-561 220 0
-561 221 0
-561 222 0
-561 223 0
-561 224 0
-561 225 0
-561 226 0
-561 227 0
-561 228 0
-561 229 0
-561 230 0
-561 231 0
-561 232 0
-561 233 0
-561 234 0
-561 235 0
-561 236 0
-561 237 0
-561 238 0
-561 239 0
-561 240 0
-561 241 0
-561 242 0
-561 243 0
-561 244 0
-561 245 0
-561 246 0
-561 247 0
-561 248 0
-561 249 0
-561 250 0
-561 251 0
-561 252 0
-561 253 0
-561 254 0
-561 255 0
-561 256 0
-561 257 0
-561 258 0
-561 259 0
-561 260 0
-561 261 0
-561 262 0
-561 263 0
-561 264 0
-561 265 0
-561 266 0
-561 267 0
-561 268 0
-561 269 0
-561 270 0
-561 271 0
-561 272 0
-561 273 0
-561 274 0
-561 275 0
-561 276 0
-561 277 0
-561 278 0
-561 279 0
-561 280 0
-561 281 0
-561 282 0
-561 283 0
-561 284 0
-561 285 0
-561 286 0
-561 287 0
-561 288 0
-561 289 0
-561 290 0
-561 291 0
-561 292 0
-561 293 0
-561 294 0
-561 295 0
-561 296 0
-561 297 0
-561 298 0
-561 299 0
-561 300 0
-561 301 0
-561 302 0
-561 303 0
-561 304 0
-561 305 0
-561 306 0
-561 307 0
-561 308 0
-561 309 0
-561 310 0
-561 311 0
-561 312 0
-561 313 0
-561 314 0
-561 315 0
-561 316 0
-561 317 0
-561 318 0
-561 319 0
-561 320 0
-561 321 0
-561 322 0
-561 323 0
-561 324 0
-561 325 0
-561 326 0
-561 327 0
-561 328 0
-561 329 0
-561 330 0
-561 331 0
-561 332 0
-561 333 0
-561 334 0
-561 335 0
-561 336 0
-561 337 0
-561 338 0
-561 339 0
-561 340 0
-561 341 0
-561 342 0
-561 343 0
-561 344 0
-561 345 0
-561 346 0
-561 347 0
-561 348 0
-561 349 0
-561 350 0
-561 351 0
-561 352 0
-561 353 0
-561 354 0
-561 355 0
-561 356 0
-561 357 0
-561 358 0
-561 359 0
-561 360 0
-561 361 0
-561 362 0
-561 363 0
-561 364 0
-561 365 0
-561 366 0
-561 367 0
-561 368 0
-561 369 0
-561 370 0
-561 371 0
-561 372 0
-561 373 0
-561 374 0
-561 375 0
-561 376 0
-561 377 0
-561 378 0
-561 379 0
-561 380 0
-561 381 0
-561 382 0
-561 383 0
-561 384 0
-561 385 0
-561 386 0
-561 387 0
-561 388 0
-561 389 0
-561 390 0
-561 391 0
-561 392 0
-561 393 0
-561 394 0
-561 395 0
-561 396 0
-561 397 0
-561 398 0
-561 399 0
-561 400 0
-561 401 0
-561 402 0
-561 403 0
-561 404 0
-561 405 0
-561 406 0
-561 407 0
-561 408 0
-561 409 0
-561 410 0
-561 411 0
-561 412 0
-561 413 0
-561 414 0
-561 415 0
-561 416 0
-561 417 0
-561 418 0
-561 419 0
-561 420 0
-561 421 0
-561 422 0
-561 423 0
-561 424 0
-561 425 0
-561 426 0
-561 427 0
-561 428 0
-561 429 0
-561 430 0
-561 431 0
-561 432 0
-561 433 0
-561 434 0
-561 435 0
-561 436 0
-561 437 0
-561 438 0
-561 439 0
-561 440 0
-561 441 0
-561 442 0
-561 443 0
-561 444 0
-561 445 0
-561 446 0
-561 447 0
-561 448 0
-561 449 0
-561 450 0
-561 451 0
-561 452 0
-561 453 0
-561 454 0
-561 455 0
-561 456 0
-561 457 0
-561 458 0
-561 459 0
-561 460 0
-561 461 0
-561 462 0
-561 463 0
-561 464 0
-561 465 0
-561 466 0
-561 467 0
-561 468 0
-561 469 0
-561 470 0
-561 471 0
-561 472 0
-561 473 0
-561 474 0
-561 475 0
-561 476 0
-561 477 0
-561 478 0
-561 479 0
-561 480 0
-561 481 0
-561 482 0
-561 483 0
-561 484 0
-561 485 0
-561 486 0
-561 487 0
-561 488 0
-561 489 0
-561 490 0
-561 491 0
-561 492 0
-561 493 0
-561 494 0
-561 495 0
-561 496 0
-561 497 0
-561 498 0
-561 499 0
-561 500 0
-561 501 0
-561 502 0
-561 503 0
-561 504 0
-561 505 0
-561 506 0
-561 507 0
-561 508 0
-561 509 0
-561 510 0
-561 511 0
-561 512 0
-561 513 0
-561 514 0
-561 515 0
-561 516 0
-561 517 0
-561 518 0
-561 519 0
-561 520 0
-561 521 0
-561 522 0
-561 523 0
-561 524 0
-561 525 0
-561 526 0
-561 527 0
-561 528 0
-561 529 0
-561 530 0
-561 531 0
-561 532 0
-561 533 0
-561 534 0
-561 535 0
-561 536 0
-561 537 0
-561 538 0
-561 539 0
-561 540 0
-561 541 0
-561 542 0
-561 543 0
-561 544 0
-561 545 0
-561 546 0
-561 547 0
-561 548 0
-561 549 0
-561 550 0
-561 551 0
-561 552 0
-561 553 0
-561 554 0
-561 555 0
-561 556 0
-561 557 0
-561 558 0
-561 559 0
-561 560 0
561 -146 -147 -148 -149 -150 -151 -152 -153 -154 -155 -156 -157 -158 -159 -160 -161 -162 -163 -164 -165 -166 -167 -168 -169 -170 -171 -172 -173 -174 -175 -176 -177 -178 -179 -180 -181 -182 -183 -184 -185 -186 -187 -188 -189 -190 -191 -192 -193 -194 -195 -196 -197 -198 -199 -200 -201 -202 -203 -204 -205 -206 -207 -208 -209 -210 -211 -212 -213 -214 -215 -216 -217 -218 -219 -220 -221 -222 -223 -224 -225 -226 -227 -228 -229 -230 -231 -232 -233 -234 -235 -236 -237 -238 -239 -240 -241 -242 -243 -244 -245 -246 -247 -248 -249 -250 -251 -252 -253 -254 -255 -256 -257 -258 -259 -260 -261 -262 -263 -264 -265 -266 -267 -268 -269 -270 -271 -272 -273 -274 -275 -276 -277 -278 -279 -280 -281 -282 -283 -284 -285 -286 -287 -288 -289 -290 -291 -292 -293 -294 -295 -296 -297 -298 -299 -300 -301 -302 -303 -304 -305 -306 -307 -308 -309 -310 -311 -312 -313 -314 -315 -316 -317 -318 -319 -320 -321 -322 -323 -324 -325 -326 -327 -328 -329 -330 -331 -332 -333 -334 -335 -336 -337 -338 -339 -340 -341 -342 -343 -344 -345 -346 -347 -348 -349 -350 -351 -352 -353 -354 -355 -356 -357 -358 -359 -360 -361 -362 -363 -364 -365 -366 -367 -368 -369 -370 -371 -372 -373 -374 -375 -376 -377 -378 -379 -380 -381 -382 -383 -384 -385 -386 -387 -388 -389 -390 -391 -392 -393 -394 -395 -396 -397 -398 -399 -400 -401 -402 -403 -404 -405 -406 -407 -408 -409 -410 -411 -412 -413 -414 -415 -416 -417 -418 -419 -420 -421 -422 -423 -424 -425 -426 -427 -428 -429 -430 -431 -432 -433 -434 -435 -436 -437 -438 -439 -440 -441 -442 -443 -444 -445 -446 -447 -448 -449 -450 -451 -452 -453 -454 -455 -456 -457 -458 -459 -460 -461 -462 -463 -464 -465 -466 -467 -468 -469 -470 -471 -472 -473 -474 -475 -476 -477 -478 -479 -480 -481 -482 -483 -484 -485 -486 -487 -488 -489 -490 -491 -492 -493 -494 -495 -496 -497 -498 -499 -500 -501 -502 -503 -504 -505 -506 -507 -508 -509 -510 -511 -512 -513 -514 -515 -516 -517 -518 -519 -520 -521 -522 -523 -524 -525 -526 -527 -528 -529 -530 -531 -532 -533 -534 -535 -536 -537 -538 -539 -540 -541 -542 -543 -544 -545 -546 -547 -548 -549 -550 -551 -552 -553 -554 -555 -556 -557 -558 -559 -560 0
-561 0
